s td 30 6 35
b 1 4 7
b 2 7 18
b 3 3 15
b 4 17 26
b 5 20 27
b 6 10 26
b 7 31 34
b 8 6 8 14
b 9 9 28 32
b 10 16 19 28
b 11 13 18 33
b 12 11 13 33
b 13 3 11 13
b 14 3 19 28
b 15 10 23 27
b 16 10 24 34
b 17 14 25 27
b 18 2 28 35
b 19 1 13 14 22
b 20 27 28 30 32
b 21 2 10 13 22 28 29
b 22 3 10 13 28
b 23 10 13 14 22 28 29
b 24 2 10 21 22 29
b 25 8 10 12 27 28 29
b 26 8 10 14 27 28 29
b 27 8 10 27 28 29 30
b 28 8 10 12 28 34
b 29 34
b 30 5
1 2
1 30
2 11
3 22
4 6
5 25
6 25
7 29
8 26
9 20
10 14
11 12
12 13
13 22
14 22
15 25
16 28
17 26
18 21
19 23
20 27
21 22
21 23
21 24
23 26
25 26
25 27
25 28
28 29
